Normalized Data/p03_13_normalized_split0.vrp
NAME:p03_13_NORMALIZED_split
BEST_KNOWN: 0
COMMENT: 0
DIMENSION: 406
CAPACITY: 100
EDGE_WEIGHT_FORMAT: FUNCTION
EDGE_WEIGHT_TYPE: EXACT_2D
NODE_COORD_SECTION
1 0.00000 0.00000
2 2 12
3 2 12
4 -43 39
5 -43 39
6 39 -3
7 39 -3
8 39 -3
9 39 -3
10 39 -3
11 -12 -9
12 -12 -9
13 -12 -9
14 -12 -9
15 -12 -9
16 -27 6
17 -27 6
18 44 4
19 44 4
20 44 4
21 44 4
22 44 4
23 17 -9
24 17 -9
25 17 -9
26 17 -9
27 17 -9
28 24 -47
29 24 -47
30 24 -47
31 24 -47
32 24 -47
33 7 7
34 7 7
35 7 7
36 7 7
37 7 7
38 -29 -35
39 -29 -35
40 -29 -35
41 -29 -35
42 -29 -35
43 -29 -35
44 -9 -3
45 -9 -3
46 -9 -3
47 -9 -3
48 8 46
49 8 46
50 8 46
51 8 46
52 8 46
53 8 46
54 -27 49
55 -27 49
56 -27 49
57 43 -30
58 43 -30
59 43 -30
60 -44 5
61 -44 5
62 -44 5
63 -44 5
64 -29 -46
65 -29 -46
66 -29 -46
67 -45 33
68 -45 33
69 -45 33
70 -45 33
71 -45 33
72 -35 48
73 -35 48
74 -35 48
75 9 -4
76 9 -4
77 9 -4
78 9 -4
79 9 -4
80 9 -4
81 10 -4
82 10 -4
83 10 -4
84 -41 -47
85 -41 -47
86 -32 22
87 -32 22
88 -32 22
89 -32 22
90 -32 22
91 41 -5
92 41 -5
93 -40 33
94 -40 33
95 -2 -8
96 -2 -8
97 -2 -8
98 -2 -8
99 26 -34
100 26 -34
101 26 -34
102 36 24
103 36 24
104 36 24
105 36 24
106 36 24
107 -8 4
108 -8 4
109 -8 4
110 -8 4
111 2 44
112 2 44
113 2 44
114 2 44
115 2 44
116 -23 -23
117 -23 -23
118 -23 -23
119 -23 -23
120 14 -19
121 14 -19
122 10 16
123 10 16
124 10 16
125 10 16
126 10 16
127 10 16
128 10 16
129 13 2
130 13 2
131 13 2
132 13 2
133 13 2
134 13 2
135 34 35
136 34 35
137 34 35
138 34 35
139 34 35
140 34 35
141 -15 49
142 -15 49
143 -15 49
144 -49 1
145 -49 1
146 -49 1
147 -49 1
148 -49 1
149 -42 -15
150 -42 -15
151 -42 -15
152 -46 -2
153 -46 -2
154 -9 3
155 -9 3
156 -14 -11
157 -14 -11
158 -14 -11
159 -14 -11
160 -14 -11
161 -23 -9
162 -23 -9
163 -23 -9
164 -26 -22
165 -26 -22
166 -26 -22
167 -26 -22
168 -26 -22
169 -20 50
170 -20 50
171 -20 50
172 -9 -44
173 -9 -44
174 -9 -44
175 -9 -44
176 -9 -44
177 -25 -17
178 -25 -17
179 -25 -17
180 12 9
181 12 9
182 -27 4
183 -27 4
184 -27 4
185 -27 4
186 -27 4
187 -10 -7
188 -10 -7
189 -10 -7
190 -10 -7
191 27 -10
192 27 -10
193 27 -10
194 27 -10
195 27 -10
196 14 -43
197 14 -43
198 14 -43
199 14 -43
200 14 -43
201 48 12
202 48 12
203 48 12
204 48 12
205 -48 25
206 -48 25
207 -48 25
208 -48 25
209 -48 25
210 -48 25
211 11 25
212 11 25
213 11 25
214 11 25
215 41 -15
216 41 -15
217 41 -15
218 41 -15
219 39 1
220 39 1
221 22 12
222 22 12
223 22 12
224 30 29
225 30 29
226 30 29
227 30 29
228 30 29
229 27 -39
230 27 -39
231 27 -39
232 27 -39
233 27 -39
234 11 -43
235 11 -43
236 11 -43
237 11 -43
238 11 -43
239 11 -43
240 -9 49
241 -9 49
242 -9 49
243 -9 49
244 26 -47
245 26 -47
246 26 14
247 26 14
248 26 14
249 26 14
250 16 16
251 16 16
252 16 16
253 16 16
254 16 16
255 -15 30
256 -15 30
257 -15 30
258 -15 30
259 -15 30
260 -15 30
261 3 40
262 3 40
263 3 40
264 3 40
265 3 40
266 -30 31
267 -30 31
268 -30 31
269 -30 31
270 -30 31
271 -30 31
272 -30 31
273 44 15
274 44 15
275 44 15
276 -35 9
277 -35 9
278 -35 9
279 -35 9
280 -48 -16
281 -48 -16
282 -48 -16
283 7 -2
284 7 -2
285 7 -2
286 7 -2
287 -6 1
288 -6 1
289 -14 0
290 -14 0
291 -14 0
292 -14 0
293 8 38
294 8 38
295 8 38
296 8 38
297 8 38
298 8 38
299 5 45
300 5 45
301 5 45
302 5 45
303 15 -16
304 15 -16
305 15 -16
306 15 -16
307 15 -16
308 15 -16
309 15 -16
310 45 -43
311 45 -43
312 45 -43
313 45 -43
314 45 -43
315 45 -43
316 45 -43
317 -18 -23
318 -18 -23
319 -18 -23
320 -44 42
321 -44 42
322 -44 42
323 -44 42
324 23 8
325 23 8
326 23 8
327 23 8
328 -20 26
329 -20 26
330 -20 26
331 -20 26
332 -20 26
333 -20 26
334 7 38
335 7 38
336 7 38
337 7 38
338 7 38
339 7 38
340 37 -49
341 37 -49
342 37 -49
343 37 -49
344 37 -49
345 38 9
346 38 9
347 38 9
348 38 9
349 -41 -14
350 -41 -14
351 -41 -14
352 21 -30
353 21 -30
354 21 -30
355 21 -30
356 21 -30
357 -17 -9
358 -17 -9
359 -37 -28
360 -37 -28
361 -37 -28
362 -33 32
363 -33 32
364 -33 32
365 -33 32
366 -33 32
367 -33 32
368 20 -21
369 20 -21
370 20 -21
371 20 -21
372 -50 35
373 -50 35
374 -50 35
375 -8 -32
376 -8 -32
377 -8 -32
378 -24 -23
379 -24 -23
380 -24 -23
381 -24 -23
382 10 40
383 10 40
384 10 40
385 2 -10
386 2 -10
387 2 -10
388 0 40
389 0 40
390 3 -47
391 3 -47
392 3 -47
393 2 -12
394 2 -12
395 2 -12
396 2 -12
397 2 -12
398 7 13
399 7 13
400 15 -40
401 15 -40
402 15 -40
403 -30 43
404 -30 43
405 -30 43
406 -30 43
DEMAND_SECTION
1 0
2 10
3 5
4 20
5 20
6 20
7 20
8 5
9 1
10 1
11 20
12 5
13 1
14 1
15 1
16 20
17 20
18 20
19 1
20 1
21 1
22 1
23 20
24 20
25 5
26 1
27 1
28 20
29 10
30 5
31 1
32 1
33 10
34 1
35 1
36 1
37 1
38 20
39 10
40 1
41 1
42 1
43 1
44 20
45 10
46 5
47 1
48 20
49 10
50 1
51 1
52 1
53 1
54 20
55 10
56 5
57 20
58 10
59 1
60 20
61 20
62 5
63 1
64 20
65 20
66 5
67 20
68 10
69 5
70 1
71 1
72 10
73 1
74 1
75 20
76 10
77 5
78 1
79 1
80 1
81 20
82 5
83 1
84 10
85 5
86 20
87 20
88 1
89 1
90 1
91 10
92 5
93 20
94 5
95 20
96 20
97 1
98 1
99 20
100 10
101 1
102 20
103 1
104 1
105 1
106 1
107 20
108 20
109 5
110 1
111 20
112 20
113 1
114 1
115 1
116 20
117 1
118 1
119 1
120 20
121 20
122 20
123 20
124 5
125 1
126 1
127 1
128 1
129 20
130 5
131 1
132 1
133 1
134 1
135 10
136 5
137 1
138 1
139 1
140 1
141 20
142 1
143 1
144 20
145 10
146 1
147 1
148 1
149 20
150 20
151 1
152 20
153 5
154 20
155 10
156 20
157 5
158 1
159 1
160 1
161 20
162 10
163 5
164 20
165 20
166 5
167 1
168 1
169 20
170 5
171 1
172 20
173 5
174 1
175 1
176 1
177 20
178 1
179 1
180 20
181 5
182 20
183 5
184 1
185 1
186 1
187 20
188 20
189 1
190 1
191 10
192 5
193 1
194 1
195 1
196 20
197 10
198 1
199 1
200 1
201 10
202 1
203 1
204 1
205 20
206 10
207 1
208 1
209 1
210 1
211 10
212 1
213 1
214 1
215 20
216 10
217 5
218 1
219 20
220 20
221 20
222 1
223 1
224 10
225 5
226 1
227 1
228 1
229 20
230 10
231 1
232 1
233 1
234 20
235 20
236 1
237 1
238 1
239 1
240 20
241 20
242 5
243 1
244 20
245 10
246 20
247 20
248 1
249 1
250 20
251 5
252 1
253 1
254 1
255 20
256 20
257 1
258 1
259 1
260 1
261 20
262 10
263 5
264 1
265 1
266 20
267 20
268 5
269 1
270 1
271 1
272 1
273 20
274 5
275 1
276 20
277 1
278 1
279 1
280 20
281 1
282 1
283 20
284 1
285 1
286 1
287 20
288 5
289 10
290 5
291 1
292 1
293 20
294 10
295 1
296 1
297 1
298 1
299 10
300 1
301 1
302 1
303 20
304 10
305 5
306 1
307 1
308 1
309 1
310 20
311 10
312 5
313 1
314 1
315 1
316 1
317 20
318 5
319 1
320 20
321 10
322 1
323 1
324 20
325 10
326 5
327 1
328 20
329 10
330 1
331 1
332 1
333 1
334 20
335 20
336 1
337 1
338 1
339 1
340 20
341 20
342 1
343 1
344 1
345 20
346 1
347 1
348 1
349 10
350 5
351 1
352 20
353 10
354 1
355 1
356 1
357 20
358 20
359 10
360 5
361 1
362 10
363 5
364 1
365 1
366 1
367 1
368 20
369 10
370 5
371 1
372 10
373 1
374 1
375 20
376 10
377 1
378 20
379 5
380 1
381 1
382 20
383 1
384 1
385 10
386 5
387 1
388 20
389 5
390 20
391 10
392 5
393 20
394 10
395 5
396 1
397 1
398 20
399 20
400 20
401 20
402 5
403 10
404 5
405 1
406 1
DEPOT_SECTION
1
-1
EOF