Normalized Data/p03_13_normalized_split0.sol
405 -2 1 293 292 213 210 212 211 253 249 179 -9 7 17 18 20 21 19 202 200 203 201 272 273 274 347 344 346 345 129 132 -15 16 143 147 144 146 145 152 151 -24 56 58 57 215 214 217 216 191 193 194 192 190 82 81 283 285 -31 28 30 27 29 243 244 228 231 355 354 -35 34 33 250 251 252 223 224 225 226 227 134 138 135 139 137 136 101 103 104 105 102 220 180 -36 32 125 122 121 126 124 127 123 398 397 -44 43 11 14 13 10 12 186 188 189 187 -46 45 356 357 160 161 162 288 289 291 290 -65 63 64 84 83 41 38 42 40 37 39 317 -77 76 79 75 26 25 22 23 80 282 284 -78 74 306 304 302 303 120 119 -89 87 85 86 88 265 266 269 267 271 268 270 -91 90 6 5 8 218 219 130 131 133 -92 93 4 3 321 319 322 320 365 366 363 -94 96 95 396 394 393 392 395 386 385 384 -97 376 172 171 175 174 173 391 389 390 195 197 199 198 196 -108 106 107 154 153 286 287 -109 204 209 208 207 206 205 372 373 371 70 66 69 67 68 364 362 361 -128 324 326 325 323 248 247 245 246 222 221 -142 141 140 241 239 240 242 388 387 -158 156 155 116 117 118 115 316 318 374 375 -159 157 178 177 176 165 163 166 164 167 380 379 378 377 -169 168 170 54 55 53 72 73 71 404 403 402 405 -183 181 184 185 182 59 60 62 61 277 276 278 275 -229 230 232 341 343 340 342 339 313 312 315 309 314 311 310 307 308 305 -234 237 235 238 236 233 401 399 400 -254 255 256 257 259 258 327 328 329 331 332 330 -262 114 110 111 113 112 298 301 300 299 47 52 48 50 49 51 296 297 294 295 -263 261 260 264 383 381 382 334 335 338 333 337 336 -350 348 349 148 150 149 281 280 279 359 360 358 -352 351 353 100 99 98 367 368 370 369 0 





OBJ=
2780.204
BEST_KNOWN=
0.000